p cnf 26 67
a 20 14 0
e 1 2 3 4 5 6 7 8 9 10 11 12 13 15 16 17 18 19 21 22 23 24 25 26 0
3 -1 0
3 2 0
1 -2 -3 0
5 -6 -7 0
-5 6 -7 0
5 6 7 0
-5 -6 7 0
-8 -4 0
-8 7 0
4 -7 8 0
-9 -3 0
-9 8 0
3 -8 9 0
10 -5 0
10 4 0
5 -4 -10 0
11 -5 0
11 4 0
5 -4 -11 0
12 -10 0
12 11 0
10 -11 -12 0
13 -1 0
13 -2 0
1 2 -13 0
-5 -13 -14 0
5 13 -14 0
-5 13 14 0
5 -13 14 0
-15 12 0
-15 -14 0
-12 14 15 0
17 6 0
17 16 0
-6 -16 -17 0
-18 -17 0
-18 7 0
17 -7 18 0
-20 4 0
-20 -1 0
-4 1 20 0
20 21 -22 0
-20 -21 -22 0
20 -21 22 0
-20 21 22 0
23 -19 0
23 22 0
19 -22 -23 0
18 23 -24 0
-18 -23 -24 0
18 -23 24 0
-18 23 24 0
15 24 -25 0
-15 -24 -25 0
15 -24 25 0
-15 24 25 0
9 -25 -26 0
-9 25 -26 0
9 25 26 0
-9 -25 26 0
-7 -10 -26 -16 0
-24 19 0
2 7 -9 11 0
-20 -2 -19 -9 -14 23 0
-6 -19 25 26 21 -10 0
-15 -11 -24 -16 25 -19 0
26 0
